c This Formular is generated by mcnf
c
c    horn? no 
c    forced? no 
c    mixed sat? no 
c    clause length = 3 
c
p cnf 20  91 
 -16 -2 5 0
-16 -15 17 0
-16 -14 -7 0
14 2 4 0
-10 -16 20 0
-12 -16 -8 0
7 -8 13 0
-5 16 3 0
5 20 4 0
-11 -15 -5 0
-14 3 -1 0
1 -15 -11 0
-9 -10 2 0
-5 -16 -8 0
-4 14 -2 0
-7 13 20 0
-15 -5 -10 0
-16 -13 15 0
-7 10 3 0
-7 -8 -4 0
20 -14 -17 0
%
0

98 44 86 72 9 41 24 62 2 29 49 42 93 54 58 28 34 4 59 18
